 Code   931
 Dimension, Fixed Cost
   100        3000
 Facility, Client, Transportation Cost
     1       47           0
     1       51           2
     1       55           2
     1       59           3
     1       65           1
     1       68           2
     1       80           4
     1       88           1
     1       94           2
     1       98           0
     2        3           4
     2        5           1
     2       34           1
     2       36           0
     2       50           4
     2       61           1
     2       66           4
     2       82           2
     2       85           0
     2       88           1
     3        2           3
     3        7           3
     3       10           2
     3       41           1
     3       44           3
     3       48           2
     3       53           3
     3       75           4
     3       99           2
     3      100           1
     4        4           3
     4        8           1
     4        9           0
     4       43           1
     4       49           0
     4       55           3
     4       73           3
     4       75           1
     4       89           1
     4       98           1
     5        2           0
     5        9           1
     5       10           0
     5       16           2
     5       19           4
     5       21           2
     5       25           4
     5       27           3
     5       54           4
     5       85           2
     6        5           2
     6       12           0
     6       25           1
     6       45           1
     6       56           2
     6       63           1
     6       68           1
     6       75           2
     6       96           4
     6       99           4
     7        3           2
     7        5           0
     7        6           0
     7        7           2
     7       10           1
     7       33           0
     7       41           2
     7       71           0
     7       79           1
     7       86           4
     8       13           3
     8       20           4
     8       25           2
     8       28           1
     8       31           2
     8       56           3
     8       59           0
     8       78           1
     8       82           3
     8       90           3
     9       13           1
     9       20           3
     9       27           2
     9       32           2
     9       42           2
     9       43           0
     9       46           3
     9       76           3
     9       95           1
     9       99           3
    10        5           4
    10        7           2
    10       10           4
    10       13           3
    10       22           4
    10       28           2
    10       29           3
    10       62           0
    10       83           4
    10       99           3
    11        5           3
    11       18           0
    11       45           2
    11       48           1
    11       54           2
    11       61           2
    11       77           1
    11       81           0
    11       86           4
    11       94           4
    12       13           1
    12       18           3
    12       28           0
    12       39           1
    12       51           1
    12       63           0
    12       71           3
    12       74           1
    12       76           4
    12       95           0
    13        3           4
    13       12           1
    13       18           1
    13       20           3
    13       25           0
    13       45           3
    13       54           3
    13       55           2
    13       61           3
    13       94           1
    14        3           1
    14        4           2
    14       22           2
    14       31           4
    14       41           0
    14       56           2
    14       68           2
    14       77           2
    14       86           1
    14       90           1
    15        2           0
    15       10           3
    15       11           3
    15       14           0
    15       15           3
    15       24           3
    15       33           0
    15       41           4
    15       67           1
    15       90           3
    16        6           4
    16       12           0
    16       14           1
    16       30           1
    16       32           1
    16       42           2
    16       63           3
    16       68           0
    16       70           4
    16       73           1
    17       15           0
    17       29           0
    17       31           3
    17       38           1
    17       41           2
    17       50           4
    17       64           4
    17       67           2
    17       72           2
    17       98           4
    18       22           0
    18       36           3
    18       41           1
    18       49           3
    18       50           1
    18       65           3
    18       71           3
    18       79           1
    18       87           0
    18       89           0
    19       15           0
    19       21           4
    19       26           0
    19       27           0
    19       31           1
    19       44           1
    19       53           0
    19       55           3
    19       78           1
    19       82           4
    20        9           0
    20       35           0
    20       58           1
    20       61           4
    20       73           3
    20       75           2
    20       82           1
    20       88           4
    20       89           0
    20       95           2
    21       15           3
    21       25           1
    21       30           3
    21       37           1
    21       46           2
    21       54           2
    21       55           1
    21       59           4
    21       76           0
    21       77           1
    22        9           3
    22       22           3
    22       24           2
    22       28           0
    22       47           4
    22       61           4
    22       80           2
    22       84           1
    22       85           1
    22       89           1
    23       17           4
    23       21           4
    23       24           4
    23       42           1
    23       43           1
    23       47           2
    23       58           1
    23       67           2
    23       82           2
    23       86           0
    24        6           3
    24       11           4
    24       17           2
    24       19           1
    24       35           3
    24       54           2
    24       61           2
    24       86           2
    24       95           0
    24      100           3
    25       15           2
    25       19           0
    25       24           1
    25       37           3
    25       40           0
    25       42           4
    25       49           0
    25       52           4
    25       64           4
    25       83           0
    26        4           2
    26        7           0
    26        8           2
    26       11           3
    26       21           0
    26       40           4
    26       70           4
    26       84           3
    26       86           4
    26       96           2
    27        4           4
    27       17           0
    27       29           4
    27       47           4
    27       50           4
    27       59           1
    27       70           1
    27       71           3
    27       80           3
    27       95           3
    28        3           1
    28        7           0
    28        8           0
    28       29           1
    28       32           2
    28       34           1
    28       52           0
    28       57           0
    28       64           2
    28       72           3
    29        1           0
    29       11           4
    29       28           4
    29       41           2
    29       42           1
    29       54           1
    29       56           1
    29       67           2
    29       87           0
    29       93           2
    30        8           3
    30       17           3
    30       20           2
    30       24           0
    30       29           2
    30       50           2
    30       52           4
    30       68           2
    30       81           2
    30       97           1
    31        2           0
    31        6           0
    31       39           1
    31       50           1
    31       65           2
    31       77           1
    31       85           4
    31       91           3
    31       96           3
    31       98           4
    32        3           3
    32       17           0
    32       19           0
    32       21           4
    32       34           1
    32       64           3
    32       73           3
    32       80           0
    32       87           4
    32      100           0
    33       23           3
    33       24           0
    33       25           2
    33       37           3
    33       50           0
    33       53           0
    33       54           4
    33       56           1
    33       79           3
    33       83           2
    34       13           4
    34       14           4
    34       33           2
    34       34           2
    34       50           1
    34       53           0
    34       69           3
    34       78           2
    34       81           4
    34       93           0
    35       16           2
    35       26           1
    35       47           0
    35       62           3
    35       73           4
    35       78           4
    35       83           0
    35       88           2
    35       90           1
    35       98           2
    36        9           3
    36       26           3
    36       36           2
    36       42           2
    36       50           0
    36       54           3
    36       60           1
    36       64           0
    36       83           2
    36       98           1
    37        6           4
    37       33           3
    37       36           3
    37       53           1
    37       58           3
    37       85           0
    37       86           3
    37       89           4
    37       94           4
    37      100           4
    38       11           0
    38       24           3
    38       40           1
    38       57           1
    38       58           1
    38       75           1
    38       76           2
    38       79           1
    38       88           0
    38       96           2
    39        5           4
    39        7           2
    39       24           3
    39       33           2
    39       41           2
    39       45           2
    39       55           2
    39       59           2
    39       82           2
    39       91           4
    40        9           2
    40       24           4
    40       37           1
    40       51           1
    40       64           4
    40       65           1
    40       69           2
    40       77           0
    40       84           2
    40      100           1
    41       24           0
    41       27           2
    41       30           1
    41       67           2
    41       68           1
    41       74           3
    41       90           4
    41       94           2
    41       96           3
    41       97           0
    42       19           2
    42       26           1
    42       28           0
    42       37           4
    42       60           1
    42       69           0
    42       74           3
    42       75           4
    42       78           0
    42       82           3
    43        8           0
    43        9           0
    43       18           1
    43       31           1
    43       33           2
    43       35           3
    43       41           2
    43       48           0
    43       76           0
    43       92           3
    44        7           0
    44       20           1
    44       31           4
    44       33           3
    44       49           2
    44       51           1
    44       56           4
    44       63           4
    44       91           4
    44       96           0
    45       26           0
    45       41           0
    45       53           4
    45       56           0
    45       72           3
    45       79           1
    45       83           1
    45       87           3
    45       89           1
    45       95           2
    46        2           2
    46       14           1
    46       16           0
    46       25           0
    46       36           3
    46       47           4
    46       56           2
    46       62           4
    46       66           4
    46      100           1
    47       34           2
    47       38           3
    47       41           4
    47       47           0
    47       49           2
    47       56           4
    47       60           0
    47       62           4
    47       90           2
    47       94           3
    48       14           0
    48       20           4
    48       21           2
    48       33           4
    48       37           2
    48       41           0
    48       55           2
    48       90           1
    48       95           2
    48       97           1
    49        4           0
    49        9           1
    49       13           2
    49       29           1
    49       32           0
    49       52           1
    49       54           0
    49       67           3
    49       75           1
    49       94           2
    50        1           3
    50        8           1
    50       15           1
    50       49           1
    50       52           3
    50       59           1
    50       62           4
    50       65           4
    50       68           0
    50       79           3
    51        4           0
    51        8           1
    51        9           0
    51       27           4
    51       30           0
    51       43           3
    51       48           2
    51       66           3
    51       78           1
    51       91           3
    52        8           0
    52       16           1
    52       21           4
    52       30           0
    52       42           4
    52       51           0
    52       62           3
    52       69           4
    52       75           0
    52       92           2
    53       10           0
    53       38           4
    53       39           2
    53       46           1
    53       51           4
    53       60           0
    53       63           4
    53       70           4
    53       89           4
    53       93           4
    54        2           3
    54       22           4
    54       24           3
    54       37           2
    54       42           1
    54       57           3
    54       58           2
    54       68           3
    54       93           1
    54       97           4
    55        3           3
    55        6           0
    55       16           0
    55       39           1
    55       57           0
    55       59           2
    55       69           3
    55       80           2
    55       81           0
    55       97           1
    56        1           4
    56        3           2
    56       29           1
    56       38           3
    56       40           1
    56       57           4
    56       60           1
    56       92           4
    56       94           3
    56       96           4
    57       11           2
    57       26           4
    57       30           2
    57       35           4
    57       52           2
    57       56           0
    57       58           2
    57       67           3
    57       85           0
    57       88           2
    58        8           1
    58       14           0
    58       19           1
    58       22           0
    58       27           1
    58       29           1
    58       32           3
    58       39           0
    58       52           1
    58       74           1
    59        2           2
    59        4           4
    59        5           3
    59        8           3
    59        9           4
    59       39           1
    59       54           0
    59       71           1
    59       95           0
    59       96           0
    60        1           2
    60        8           4
    60       12           1
    60       22           4
    60       33           3
    60       40           1
    60       44           2
    60       62           1
    60       86           1
    60       89           2
    61       20           3
    61       27           2
    61       40           4
    61       42           3
    61       60           1
    61       63           3
    61       67           1
    61       78           2
    61       86           0
    61       97           3
    62        1           3
    62       11           3
    62       15           2
    62       16           3
    62       29           1
    62       30           1
    62       64           1
    62       82           2
    62       88           2
    62       95           4
    63        3           4
    63        5           2
    63        7           3
    63       10           0
    63       18           1
    63       22           0
    63       46           2
    63       49           0
    63       50           4
    63       74           2
    64        2           0
    64        3           0
    64       33           1
    64       34           1
    64       35           0
    64       38           1
    64       39           3
    64       49           1
    64       73           0
    64       75           2
    65        1           1
    65        9           1
    65       18           1
    65       24           4
    65       35           1
    65       36           1
    65       46           1
    65       58           2
    65       78           0
    65       92           2
    66        1           0
    66       13           2
    66       21           3
    66       28           0
    66       37           3
    66       41           3
    66       69           3
    66       76           2
    66       81           3
    66       86           0
    67       19           1
    67       23           4
    67       30           2
    67       34           2
    67       40           2
    67       56           4
    67       67           1
    67       89           4
    67       92           0
    67       98           1
    68        8           3
    68       12           2
    68       27           2
    68       53           0
    68       55           4
    68       77           0
    68       79           1
    68       88           1
    68       96           0
    68       98           3
    69        1           4
    69        6           0
    69       10           4
    69       28           1
    69       29           1
    69       48           0
    69       64           2
    69       65           4
    69       66           1
    69       75           0
    70       11           0
    70       13           4
    70       23           1
    70       29           3
    70       52           0
    70       56           2
    70       73           2
    70       82           4
    70       99           3
    70      100           2
    71        2           2
    71        4           1
    71       30           3
    71       36           4
    71       55           1
    71       58           1
    71       62           2
    71       65           3
    71       82           2
    71       92           3
    72       10           4
    72       14           3
    72       26           1
    72       32           2
    72       39           1
    72       42           3
    72       61           2
    72       86           3
    72       90           3
    72       91           0
    73        8           1
    73       17           1
    73       45           1
    73       47           3
    73       56           3
    73       60           3
    73       80           3
    73       91           2
    73       92           1
    73       99           3
    74        1           3
    74       11           0
    74       15           1
    74       17           3
    74       25           3
    74       31           0
    74       46           0
    74       49           0
    74       55           0
    74       98           1
    75       10           2
    75       18           4
    75       20           1
    75       25           3
    75       27           2
    75       38           0
    75       75           3
    75       82           2
    75       92           2
    75       93           0
    76        3           3
    76        4           0
    76       14           2
    76       33           1
    76       38           0
    76       63           1
    76       71           1
    76       82           1
    76       87           3
    76       99           0
    77       14           4
    77       17           2
    77       31           1
    77       44           0
    77       75           1
    77       85           2
    77       86           4
    77       89           1
    77       99           2
    77      100           2
    78        7           0
    78       15           0
    78       23           3
    78       28           0
    78       48           3
    78       56           3
    78       60           3
    78       62           4
    78       78           3
    78      100           1
    79        3           3
    79        5           0
    79       10           3
    79       11           3
    79       20           2
    79       22           1
    79       28           3
    79       31           4
    79       74           2
    79       94           0
    80        5           4
    80       10           4
    80       14           2
    80       41           2
    80       43           4
    80       45           4
    80       51           2
    80       60           1
    80       78           3
    80       97           4
    81        2           1
    81        7           1
    81       13           0
    81       35           4
    81       38           2
    81       42           1
    81       51           2
    81       62           1
    81       73           3
    81       84           1
    82        7           0
    82        9           1
    82       20           4
    82       24           2
    82       29           3
    82       30           3
    82       53           3
    82       66           4
    82       75           4
    82       90           4
    83       13           2
    83       17           0
    83       19           2
    83       33           1
    83       34           1
    83       66           1
    83       69           3
    83       77           0
    83       78           3
    83       89           1
    84        4           0
    84       46           4
    84       49           1
    84       51           0
    84       54           1
    84       55           0
    84       75           1
    84       88           4
    84       91           4
    84       92           3
    85       14           4
    85       38           1
    85       40           0
    85       45           2
    85       50           4
    85       55           1
    85       61           0
    85       71           0
    85       90           4
    85       99           4
    86        2           4
    86        4           2
    86       20           2
    86       24           4
    86       41           2
    86       46           2
    86       64           2
    86       66           0
    86       98           4
    86      100           1
    87        6           3
    87        8           1
    87       13           3
    87       23           2
    87       26           4
    87       35           2
    87       42           3
    87       46           0
    87       64           2
    87       98           2
    88       11           3
    88       21           0
    88       24           0
    88       34           1
    88       47           0
    88       58           3
    88       62           2
    88       83           4
    88       88           2
    88       92           3
    89        5           1
    89       14           4
    89       20           4
    89       33           4
    89       50           4
    89       61           1
    89       62           3
    89       73           3
    89       77           3
    89      100           4
    90       33           4
    90       41           2
    90       49           4
    90       63           2
    90       65           4
    90       66           3
    90       81           0
    90       87           4
    90       90           0
    90       97           0
    91       30           1
    91       31           3
    91       32           0
    91       40           1
    91       43           2
    91       50           4
    91       54           1
    91       63           0
    91       66           1
    91       88           1
    92       19           2
    92       21           3
    92       23           2
    92       26           2
    92       28           1
    92       56           1
    92       72           1
    92       75           3
    92       80           4
    92       85           1
    93        4           2
    93       25           2
    93       56           4
    93       69           3
    93       78           3
    93       82           3
    93       86           3
    93       88           2
    93       97           2
    93      100           4
    94       14           4
    94       17           0
    94       24           4
    94       31           1
    94       37           3
    94       56           2
    94       69           4
    94       72           0
    94       77           4
    94       92           2
    95       15           1
    95       20           4
    95       23           3
    95       24           4
    95       33           4
    95       36           0
    95       37           4
    95       38           1
    95       44           0
    95       57           0
    96        2           1
    96        9           4
    96       16           3
    96       22           3
    96       29           0
    96       40           1
    96       44           4
    96       56           0
    96       58           0
    96       83           3
    97        4           2
    97       26           4
    97       35           1
    97       47           0
    97       53           2
    97       58           2
    97       66           3
    97       68           3
    97       88           0
    97       97           1
    98        1           2
    98       10           3
    98       14           3
    98       18           1
    98       23           0
    98       57           3
    98       61           3
    98       73           0
    98       94           2
    98       97           1
    99       26           1
    99       31           2
    99       40           1
    99       50           0
    99       62           2
    99       68           4
    99       80           0
    99       82           1
    99       84           1
    99       91           0
   100        1           4
   100        2           4
   100       16           3
   100       23           0
   100       27           2
   100       39           2
   100       59           3
   100       67           1
   100       84           3
   100       99           4
